SAT
1 2 3 4 -5 -6 -7 -8 -9 -10 -11 -12 -13 -14 -15 -16 -17 -18 -19 -20 -21 -26 -29 -33 -34 -35 -36 -37 -38 -39 -40 -41 -44 -46 -48 -49 -50 -51 -52 -53 -54 -55 -56 -57 -60 -62 -64 -65 -66 -67 -68 -69 -70 -71 -72 -73 -76 -78 -80 -81 -82 -83 -84 -85 -86 -87 -88 -89 -91 -92 -93 -94 -95 -96 -97 -98 -99 -100 219 202 190 188 -22 -32 90 -101 -106 -109 -169 -186 -193 -198 -199 -200 -201 -204 -206 -209 -216 -220 -224 -225 -226 -232 -236 -241 -248 -252 -256 -23 30 24 -27 -42 -43 45 -47 -58 -59 -61 63 -74 -75 -77 -79 25 -28 -31 -112 -113 -114 -115 -116 -117 -120 -121 -124 -126 -128 -129 -130 -133 -134 -135 -136 -137 -140 -142 -144 -145 -146 -147 -148 -149 -150 -151 -152 -153 -156 -158 -160 -161 -162 -163 -164 -165 -166 -167 -168 -170 -171 -172 -173 -175 -176 -177 -178 -179 -180 -102 -118 -181 -189 -249 -103 -119 -192 -194 -250 104 110 108 -132 -105 -174 131 -195 -196 -197 -208 -211 -214 -227 -230 -240 -243 -246 -251 -182 -183 122 -125 -107 -123 -127 -138 -139 -141 143 -154 -155 -157 -159 -111 -210 -212 -213 -215 -217 -222 -228 -229 -233 -238 -242 -244 -245 -247 -253 -254 -255 -257 -258 -259 -260 231 -184 -185 191 -205 -218 -223 -235 -239 -187 -203 -207 -221 -234 -237
